
n_res = 6;
rcap = [20, 21, 20, 21, 1713, 1634];
rtype = [1, 1, 1, 1, 2, 2];
n_tasks = 100;
modes =  [{1, 2, 3}, {4, 5, 6}, {7, 8, 9}, {10, 11, 12}, {13, 14, 15}, {16, 17, 18}, {19, 20, 21}, {22, 23, 24}, {25, 26, 27}, {28, 29, 30}, {31, 32, 33}, {34, 35, 36}, {37, 38, 39}, {40, 41, 42}, {43, 44, 45}, {46, 47, 48}, {49, 50, 51}, {52, 53, 54}, {55, 56, 57}, {58, 59, 60}, {61, 62, 63}, {64, 65, 66}, {67, 68, 69}, {70, 71, 72}, {73, 74, 75}, {76, 77, 78}, {79, 80, 81}, {82, 83, 84}, {85, 86, 87}, {88, 89, 90}, {91, 92, 93}, {94, 95, 96}, {97, 98, 99}, {100, 101, 102}, {103, 104, 105}, {106, 107, 108}, {109, 110, 111}, {112, 113, 114}, {115, 116, 117}, {118, 119, 120}, {121, 122, 123}, {124, 125, 126}, {127, 128, 129}, {130, 131, 132}, {133, 134, 135}, {136, 137, 138}, {139, 140, 141}, {142, 143, 144}, {145, 146, 147}, {148, 149, 150}, {151, 152, 153}, {154, 155, 156}, {157, 158, 159}, {160, 161, 162}, {163, 164, 165}, {166, 167, 168}, {169, 170, 171}, {172, 173, 174}, {175, 176, 177}, {178, 179, 180}, {181, 182, 183}, {184, 185, 186}, {187, 188, 189}, {190, 191, 192}, {193, 194, 195}, {196, 197, 198}, {199, 200, 201}, {202, 203, 204}, {205, 206, 207}, {208, 209, 210}, {211, 212, 213}, {214, 215, 216}, {217, 218, 219}, {220, 221, 222}, {223, 224, 225}, {226, 227, 228}, {229, 230, 231}, {232, 233, 234}, {235, 236, 237}, {238, 239, 240}, {241, 242, 243}, {244, 245, 246}, {247, 248, 249}, {250, 251, 252}, {253, 254, 255}, {256, 257, 258}, {259, 260, 261}, {262, 263, 264}, {265, 266, 267}, {268, 269, 270}, {271, 272, 273}, {274, 275, 276}, {277, 278, 279}, {280, 281, 282}, {283, 284, 285}, {286, 287, 288}, {289, 290, 291}, {292, 293, 294}, {295, 296, 297}, {298, 299, 300}];
succ =  [{20, 17, 15, 14, 11, 10, 9, 7}, {21, 17, 15, 12, 10, 8, 7}, {11, 7, 5}, {21, 13, 5}, {29, 27, 23, 20, 19, 18, 17, 14, 10}, {30, 13, 11, 9}, {33, 30, 25, 22, 19, 13}, {31, 30, 27, 18, 14}, {33, 29, 27, 23, 22, 18}, {35, 34, 33, 32, 31, 30, 26, 24, 22}, {35, 33, 32, 31, 27, 23, 21}, {42, 34, 31, 25, 24, 22, 18}, {29, 27, 23, 18}, {42, 34, 32, 26, 25, 24, 22}, {42, 39, 34, 33, 18}, {40, 35, 34, 32, 31, 27, 25}, {42, 34, 33, 31, 22}, {47, 40, 38, 35, 32, 26}, {47, 40, 39, 38, 32, 28}, {40, 39, 38, 37, 34, 28}, {34, 28, 25}, {47, 40, 38, 37, 28}, {42, 40, 37, 34, 28}, {50, 49, 47, 39, 28}, {64, 59, 58, 56, 50, 49, 47, 46, 45, 41, 39, 38}, {50, 49, 28}, {50, 28}, {59, 57, 56, 46, 45, 44, 43, 41, 36}, {64, 57, 56, 49, 45, 41, 39, 37}, {64, 45, 42, 41, 38, 36}, {64, 59, 57, 56, 53, 49, 41, 39}, {64, 59, 58, 57, 56, 52, 50, 49, 48, 45}, {64, 57, 55, 46, 44, 37}, {58, 57, 55, 53, 49, 48, 44}, {59, 55, 52, 45, 41}, {67, 58, 55, 54, 53, 48}, {59, 54, 53, 52, 50}, {57, 55, 44}, {71, 63, 55, 52, 51}, {71, 59, 56, 49}, {67, 54, 48}, {75, 72, 71, 69, 67, 66, 65, 61, 59, 58}, {77, 69, 67, 64, 61, 60, 54}, {71, 66, 65, 63, 60, 52}, {69, 61, 54, 51}, {71, 61, 53, 51}, {63, 61, 54, 51}, {69, 63, 61, 51}, {67, 63, 61, 51}, {77, 72, 68, 66, 65, 61, 60}, {77, 73, 72, 70, 68, 66, 65, 60}, {77, 72, 69, 68, 67, 61}, {77, 68, 65, 63, 62, 60}, {76, 75, 73, 72, 71, 70, 68, 66, 65}, {77, 75, 72, 68, 66, 65, 62}, {68, 65, 61, 60}, {76, 75, 72, 68, 66, 62}, {77, 76, 68, 62}, {82, 73, 70, 63}, {86, 84, 82, 80, 79, 76, 75, 74}, {78, 62}, {87, 82, 74, 73, 70}, {87, 84, 79, 78, 76, 74}, {87, 86, 84, 81, 78, 73}, {87, 86, 84, 82, 78, 74}, {86, 84, 82, 81, 79, 74}, {84, 83, 82, 80, 76}, {86, 84, 83, 82, 80, 78}, {84, 79, 78, 74}, {100, 86, 84, 83, 79}, {98, 82, 81, 80}, {100, 99, 98, 97, 96, 90, 87, 85, 83}, {100, 97, 83, 79}, {100, 99, 98, 97, 96, 90, 89, 83}, {99, 85, 78}, {100, 98, 97, 88, 81}, {99, 98, 97, 90, 89, 83}, {98, 97, 96, 95, 90, 89, 88}, {99, 98, 96, 95, 89, 85}, {99, 97, 96, 90, 89, 88}, {96, 95, 89, 85}, {95, 88, 85}, {95, 94, 91, 88}, {97, 92, 90}, {94, 92, 91}, {96, 92, 91}, {93, 92, 91}, {93, 92}, {94, 93}, {91}, {}, {}, {}, {}, {}, {}, {}, {}, {}, {}];
n_opt = 300;
dur = [14, 17, 20, 1, 9, 11, 2, 7, 12, 10, 16, 18, 4, 21, 27, 4, 16, 26, 19, 25, 26, 8, 15, 22, 16, 17, 22, 1, 2, 22, 8, 12, 27, 12, 24, 29, 13, 20, 21, 13, 16, 19, 13, 19, 29, 4, 26, 27, 7, 17, 28, 2, 14, 19, 8, 9, 17, 6, 29, 30, 15, 17, 21, 2, 3, 20, 7, 20, 22, 13, 28, 30, 10, 11, 26, 14, 15, 19, 16, 26, 30, 14, 21, 26, 18, 22, 26, 6, 7, 19, 5, 17, 18, 4, 19, 26, 10, 11, 30, 1, 10, 13, 8, 14, 28, 7, 14, 27, 13, 14, 15, 14, 16, 24, 9, 14, 18, 5, 11, 23, 8, 16, 24, 9, 13, 20, 10, 21, 27, 8, 14, 17, 1, 4, 23, 10, 14, 30, 2, 4, 22, 14, 16, 22, 14, 15, 21, 5, 12, 28, 6, 19, 21, 16, 21, 25, 1, 10, 18, 11, 12, 13, 15, 19, 21, 5, 26, 29, 2, 23, 28, 16, 24, 27, 5, 9, 11, 8, 11, 18, 1, 6, 27, 24, 26, 28, 7, 26, 30, 3, 5, 28, 4, 5, 18, 21, 23, 29, 1, 12, 20, 1, 3, 26, 1, 12, 13, 12, 16, 17, 7, 15, 23, 7, 8, 22, 14, 15, 21, 14, 18, 25, 9, 17, 25, 3, 10, 21, 9, 13, 24, 1, 13, 28, 6, 21, 29, 2, 20, 28, 5, 6, 25, 18, 19, 25, 21, 22, 27, 6, 24, 29, 7, 21, 28, 4, 20, 21, 8, 11, 16, 5, 6, 14, 2, 18, 26, 10, 16, 29, 13, 21, 29, 3, 4, 5, 5, 22, 27, 3, 8, 15, 4, 14, 20, 3, 12, 26, 4, 10, 25, 4, 8, 27, 12, 13, 24, 13, 16, 23];
rreq = [|3, 2, 2, 4, 2, 2, 2, 2, 2, 5, 4, 4, 5, 4, 4, 3, 2, 1, 3, 3, 3, 2, 2, 1, 4, 3, 2, 3, 2, 2, 4, 4, 4, 5, 5, 5, 4, 3, 2, 5, 4, 3, 2, 2, 2, 5, 3, 3, 1, 1, 1, 5, 4, 4, 4, 2, 2, 1, 1, 1, 3, 3, 3, 2, 2, 1, 3, 3, 3, 5, 5, 5, 1, 1, 1, 3, 3, 2, 4, 3, 3, 2, 2, 2, 2, 1, 1, 5, 5, 5, 4, 2, 1, 5, 4, 4, 4, 3, 3, 2, 1, 1, 3, 1, 1, 3, 2, 1, 5, 3, 3, 1, 1, 1, 4, 2, 1, 4, 3, 2, 2, 2, 2, 5, 3, 2, 4, 4, 4, 2, 1, 1, 1, 1, 1, 5, 3, 3, 2, 1, 1, 5, 5, 5, 4, 3, 3, 4, 4, 4, 5, 5, 5, 2, 1, 1, 5, 2, 2, 3, 2, 1, 2, 2, 1, 4, 3, 1, 5, 4, 4, 4, 4, 3, 3, 2, 2, 5, 3, 3, 3, 3, 3, 2, 1, 1, 2, 1, 1, 4, 4, 4, 3, 2, 2, 3, 2, 2, 5, 4, 3, 2, 2, 2, 5, 3, 3, 5, 4, 3, 4, 2, 2, 2, 1, 1, 4, 4, 4, 2, 1, 1, 4, 3, 3, 3, 3, 3, 3, 1, 1, 3, 2, 2, 4, 4, 4, 5, 2, 1, 4, 4, 2, 3, 1, 1, 3, 2, 1, 4, 4, 4, 4, 3, 1, 1, 1, 1, 4, 2, 1, 5, 4, 3, 2, 1, 1, 2, 1, 1, 4, 4, 3, 2, 2, 2, 4, 2, 2, 4, 4, 4, 3, 3, 3, 3, 2, 2, 1, 1, 1, 1, 1, 1, 3, 3, 2, 3, 3, 3
 |4, 4, 4, 4, 4, 3, 3, 2, 2, 3, 3, 3, 2, 1, 1, 4, 4, 4, 4, 2, 2, 4, 3, 3, 1, 1, 1, 4, 4, 4, 4, 3, 3, 4, 4, 4, 2, 2, 2, 4, 3, 3, 5, 5, 5, 4, 4, 4, 3, 2, 2, 5, 4, 2, 2, 2, 2, 4, 2, 2, 3, 3, 3, 4, 3, 2, 5, 4, 4, 5, 3, 2, 2, 2, 2, 1, 1, 1, 2, 2, 2, 4, 4, 4, 1, 1, 1, 4, 3, 3, 3, 2, 2, 3, 2, 1, 3, 3, 2, 4, 2, 2, 1, 1, 1, 5, 2, 1, 5, 4, 4, 3, 2, 1, 5, 4, 3, 3, 3, 3, 4, 3, 2, 2, 2, 2, 2, 2, 2, 3, 2, 1, 5, 4, 3, 3, 2, 2, 3, 2, 2, 5, 3, 3, 4, 3, 3, 1, 1, 1, 1, 1, 1, 4, 4, 3, 2, 1, 1, 2, 1, 1, 3, 2, 2, 4, 3, 1, 3, 2, 1, 4, 3, 3, 4, 3, 1, 5, 4, 4, 4, 4, 2, 4, 3, 2, 5, 4, 3, 4, 3, 2, 2, 2, 1, 3, 3, 1, 2, 2, 1, 3, 2, 1, 2, 2, 2, 3, 3, 3, 2, 2, 1, 2, 2, 1, 4, 3, 3, 4, 3, 1, 2, 1, 1, 3, 3, 3, 2, 2, 2, 4, 3, 2, 4, 3, 1, 2, 2, 2, 4, 4, 4, 2, 1, 1, 3, 3, 2, 4, 3, 2, 3, 2, 2, 3, 3, 2, 4, 4, 2, 3, 3, 2, 1, 1, 1, 5, 4, 4, 4, 4, 4, 4, 3, 3, 2, 2, 2, 4, 4, 2, 3, 2, 2, 3, 3, 3, 4, 3, 3, 4, 4, 4, 2, 1, 1, 5, 5, 5
 |3, 3, 3, 5, 3, 1, 5, 5, 5, 3, 2, 1, 5, 5, 5, 4, 3, 3, 4, 4, 3, 2, 1, 1, 4, 2, 1, 4, 4, 4, 1, 1, 1, 3, 3, 3, 4, 2, 1, 3, 2, 2, 4, 3, 3, 5, 5, 5, 5, 3, 3, 5, 2, 2, 3, 2, 1, 5, 3, 1, 4, 4, 4, 3, 3, 3, 1, 1, 1, 4, 4, 4, 5, 3, 3, 5, 3, 3, 4, 4, 4, 3, 3, 3, 5, 5, 5, 5, 4, 4, 3, 3, 2, 4, 3, 2, 5, 3, 1, 5, 3, 1, 3, 3, 3, 3, 2, 2, 3, 2, 2, 5, 3, 1, 3, 3, 3, 3, 3, 2, 4, 3, 2, 4, 4, 4, 3, 1, 1, 4, 4, 4, 4, 4, 4, 2, 1, 1, 4, 3, 2, 2, 1, 1, 5, 4, 4, 4, 4, 4, 5, 3, 1, 2, 2, 2, 4, 3, 3, 3, 2, 2, 4, 3, 2, 4, 4, 4, 3, 2, 2, 5, 4, 3, 4, 3, 3, 4, 4, 3, 3, 2, 2, 4, 2, 2, 2, 2, 2, 3, 2, 1, 1, 1, 1, 4, 4, 4, 2, 1, 1, 5, 4, 4, 3, 2, 1, 2, 1, 1, 3, 3, 2, 4, 4, 4, 4, 2, 1, 3, 3, 3, 1, 1, 1, 1, 1, 1, 2, 2, 2, 3, 2, 1, 3, 2, 1, 4, 4, 4, 4, 2, 2, 3, 2, 1, 2, 2, 1, 3, 3, 2, 2, 2, 2, 3, 3, 1, 2, 1, 1, 2, 2, 1, 4, 4, 4, 3, 1, 1, 2, 1, 1, 4, 3, 3, 1, 1, 1, 3, 3, 3, 5, 5, 5, 5, 4, 4, 2, 1, 1, 1, 1, 1, 4, 4, 3, 1, 1, 1
 |5, 4, 4, 4, 3, 3, 1, 1, 1, 1, 1, 1, 4, 3, 3, 5, 3, 3, 1, 1, 1, 4, 3, 1, 3, 3, 3, 4, 4, 4, 4, 4, 4, 5, 4, 4, 5, 4, 3, 4, 2, 2, 2, 1, 1, 1, 1, 1, 5, 4, 3, 1, 1, 1, 5, 3, 2, 4, 4, 3, 4, 4, 3, 4, 2, 1, 5, 3, 3, 5, 5, 5, 3, 3, 2, 5, 5, 5, 5, 4, 3, 2, 2, 2, 5, 3, 3, 5, 4, 2, 4, 3, 2, 4, 3, 3, 3, 2, 1, 5, 3, 3, 5, 2, 1, 4, 3, 3, 2, 2, 2, 4, 4, 4, 3, 2, 1, 3, 3, 1, 5, 4, 4, 5, 3, 2, 4, 4, 4, 3, 1, 1, 1, 1, 1, 1, 1, 1, 2, 1, 1, 2, 2, 2, 5, 4, 2, 4, 4, 4, 4, 2, 2, 4, 3, 2, 2, 1, 1, 1, 1, 1, 1, 1, 1, 3, 2, 1, 3, 2, 1, 3, 3, 2, 4, 4, 3, 4, 4, 4, 2, 1, 1, 3, 3, 2, 2, 2, 2, 2, 2, 1, 4, 3, 2, 3, 1, 1, 4, 3, 3, 3, 3, 3, 3, 1, 1, 4, 3, 2, 2, 2, 2, 4, 3, 3, 4, 3, 3, 3, 2, 2, 4, 3, 3, 4, 3, 3, 5, 4, 2, 3, 2, 2, 4, 2, 1, 2, 1, 1, 3, 3, 2, 4, 4, 4, 3, 2, 2, 2, 2, 1, 5, 4, 3, 2, 2, 2, 2, 1, 1, 1, 1, 1, 3, 2, 1, 3, 2, 2, 4, 3, 3, 4, 4, 4, 1, 1, 1, 2, 2, 1, 5, 4, 2, 4, 3, 3, 5, 3, 3, 5, 5, 5, 5, 4, 4, 4, 2, 2
 |11, 7, 3, 26, 21, 18, 6, 5, 5, 23, 22, 21, 22, 21, 18, 30, 25, 22, 28, 28, 28, 6, 6, 6, 30, 29, 28, 20, 19, 19, 9, 8, 7, 22, 22, 21, 27, 21, 15, 7, 6, 3, 5, 3, 1, 19, 18, 17, 28, 28, 27, 9, 8, 8, 24, 19, 14, 25, 20, 19, 19, 16, 15, 9, 8, 4, 23, 20, 18, 5, 5, 5, 13, 11, 11, 28, 23, 17, 27, 23, 21, 24, 22, 9, 17, 15, 5, 17, 13, 11, 30, 29, 29, 25, 15, 12, 16, 10, 6, 11, 10, 8, 15, 14, 11, 16, 15, 15, 14, 13, 13, 3, 3, 3, 9, 8, 6, 16, 15, 13, 21, 17, 14, 14, 12, 5, 18, 17, 16, 5, 4, 2, 17, 17, 16, 18, 16, 10, 19, 14, 8, 28, 22, 17, 25, 24, 19, 22, 22, 22, 18, 16, 14, 25, 12, 8, 21, 19, 14, 24, 18, 14, 28, 27, 27, 21, 14, 8, 14, 12, 7, 22, 20, 18, 19, 11, 5, 19, 13, 7, 27, 20, 17, 5, 3, 3, 17, 15, 13, 25, 20, 11, 10, 7, 2, 23, 21, 19, 25, 18, 12, 20, 13, 5, 11, 6, 4, 14, 11, 5, 26, 24, 19, 24, 19, 19, 24, 15, 13, 29, 28, 27, 29, 28, 25, 23, 22, 14, 26, 25, 24, 8, 4, 4, 10, 9, 6, 19, 10, 8, 25, 17, 14, 20, 10, 4, 7, 5, 4, 21, 14, 13, 17, 16, 15, 18, 14, 13, 20, 20, 20, 15, 8, 4, 12, 8, 6, 20, 13, 6, 24, 14, 8, 26, 17, 15, 26, 12, 8, 12, 9, 6, 15, 14, 14, 3, 2, 2, 19, 10, 8, 25, 18, 8, 16, 11, 9, 25, 24, 24
 |21, 15, 15, 16, 15, 15, 19, 13, 4, 26, 25, 24, 13, 10, 4, 12, 10, 6, 26, 25, 24, 24, 21, 12, 11, 9, 9, 23, 22, 18, 28, 28, 27, 27, 22, 20, 27, 25, 20, 21, 19, 11, 18, 17, 17, 9, 5, 2, 27, 26, 26, 5, 3, 2, 24, 18, 14, 10, 5, 5, 3, 2, 1, 17, 14, 7, 24, 21, 20, 16, 12, 3, 15, 10, 4, 23, 15, 11, 17, 12, 11, 24, 17, 10, 13, 11, 4, 18, 14, 10, 16, 14, 14, 8, 7, 4, 16, 13, 9, 16, 9, 6, 19, 15, 10, 16, 15, 12, 7, 5, 3, 11, 7, 4, 26, 24, 24, 23, 20, 19, 12, 10, 10, 10, 10, 4, 19, 10, 8, 26, 25, 23, 25, 20, 16, 21, 18, 17, 17, 8, 1, 19, 19, 19, 16, 12, 10, 24, 14, 10, 18, 15, 11, 25, 22, 22, 23, 12, 9, 21, 15, 13, 25, 20, 15, 16, 16, 12, 6, 6, 5, 14, 13, 13, 21, 20, 20, 16, 16, 14, 17, 17, 17, 15, 13, 7, 23, 22, 19, 7, 6, 5, 2, 2, 2, 20, 12, 8, 20, 16, 15, 22, 16, 15, 16, 12, 10, 23, 20, 20, 5, 4, 2, 22, 17, 14, 18, 17, 14, 15, 13, 12, 14, 13, 13, 25, 24, 24, 16, 11, 6, 15, 10, 7, 20, 16, 11, 22, 15, 12, 18, 9, 5, 17, 11, 3, 17, 12, 9, 19, 17, 15, 27, 24, 23, 23, 16, 9, 22, 18, 13, 27, 23, 17, 18, 14, 10, 10, 7, 2, 21, 18, 9, 19, 18, 15, 20, 17, 14, 4, 3, 1, 16, 11, 7, 28, 24, 20, 16, 13, 10, 15, 13, 12, 15, 8, 4, 17, 14, 9|];